c status 36 1469274441181
c status 28 1469274441181
c status 27 1469274441182
c status 26 1469274441203
c status 25 1469274441236
c status 24 1469274441308
c status 23 1469274443231
s td 86 23 112
b 1 96 95 97 79
b 2 95 25 97 79 94
b 3 50 36 49 51
b 4 36 25 49 47 51
b 5 25 2 97 49 47 79 94 51
b 6 2 97 49 47 103 79 94 51 1
b 7 68 70 111 67
b 8 70 71 97 111 67
b 9 71 48 97 111 72 67
b 10 48 97 49 111 72 67 46
b 11 6 49 5 7
b 12 97 49 111 47 72 103 98 79 67 94 46 51 1
b 13 49 5 111 47 72 103 98 79 67 94 46 51 7 1
b 14 59 60 5 57
b 15 60 37 5 61 57
b 16 112 4 111 26
b 17 4 104 5 111 26
b 18 104 105 5 111 103 26
b 19 105 106 5 111 103 86 26
b 20 110 109 111 54
b 21 58 109 47 69
b 22 109 108 111 47 54 69
b 23 108 107 111 47 54 76 69
b 24 107 106 111 47 54 76 69 22
b 25 106 39 5 111 47 103 54 76 69 86 22 26
b 26 39 38 5 111 47 103 54 76 69 86 22 40 26
b 27 38 37 5 111 47 72 103 54 76 69 86 22 40 26
b 28 37 35 5 111 47 72 103 54 76 69 86 22 61 57 40 26
b 29 35 5 111 47 72 103 54 76 69 86 22 61 57 40 26 34
b 30 5 111 47 72 103 98 54 79 76 69 86 22 67 61 94 46 51 57 40 26 7 34 1
b 31 99 100 98 69
b 32 100 101 98 69 44
b 33 101 74 103 98 69 44
b 34 93 92 61 94
b 35 92 75 90 61 94
b 36 75 74 90 76 61 94
b 37 74 73 103 98 90 76 69 44 61 94
b 38 73 72 103 98 90 76 69 44 61 94 28
b 39 72 103 98 54 79 90 76 69 44 86 22 67 61 94 46 51 57 40 26 28 7 34 1
b 40 3 14 102 46
b 41 14 17 102 94 46
b 42 17 18 102 9 94 46
b 43 18 19 102 9 94 46 34
b 44 55 56 54 1
b 45 56 20 54 57 1
b 46 20 21 19 54 57 1
b 47 21 64 19 54 22 57 1
b 48 64 63 19 65 54 22 57 1
b 49 63 29 19 65 62 54 22 57 1
b 50 29 30 19 65 62 54 22 57 28 1
b 51 30 19 102 65 31 62 54 22 57 28 1
b 52 91 80 102 40
b 53 80 89 102 69 40
b 54 89 88 102 90 69 40
b 55 88 87 19 102 90 69 40
b 56 87 19 102 90 69 86 51 40
b 57 19 102 65 31 62 9 54 90 69 86 22 94 46 51 57 40 28 34 1
b 58 27 81 26 28
b 59 81 82 79 26 28
b 60 15 16 13 90
b 61 16 83 13 90 1
b 62 45 84 44 46
b 63 85 84 62 86
b 64 84 83 62 44 86 46
b 65 83 82 13 62 90 44 86 46 1
b 66 82 8 13 62 79 90 44 86 46 26 28 1
b 67 8 13 62 9 79 90 44 86 46 26 28 7 1
b 68 66 41 65 67
b 69 41 42 65 67 40
b 70 23 24 13 22
b 71 24 43 13 22 26
b 72 43 42 13 44 22 26
b 73 42 52 13 65 44 22 67 40 26
b 74 52 53 13 65 44 22 67 51 40 26
b 75 53 10 13 65 54 44 22 67 51 40 26
b 76 10 11 13 65 9 54 44 22 67 51 40 26
b 77 11 12 13 65 9 98 54 44 22 67 51 40 26
b 78 12 13 65 31 9 98 54 44 22 67 51 40 26
b 79 13 65 31 62 9 98 54 79 90 44 86 22 67 46 51 40 26 28 7 1
b 80 78 77 79 57
b 81 77 32 79 76 57
b 82 32 33 31 79 76 57
b 83 33 31 79 76 67 57 34
b 84 65 31 62 9 98 54 79 90 69 44 86 22 67 94 46 51 57 40 26 28 7 34 1
b 85 31 62 9 98 54 79 90 76 69 44 86 22 67 94 46 51 57 40 26 28 7 34 1
b 86 62 9 98 54 79 90 76 69 44 86 22 67 61 94 46 51 57 40 26 28 7 34 1
1 2
2 5
5 6
6 12
12 13
13 30
30 39
39 86
86 85
85 84
84 79
84 57
30 29
29 28
28 27
79 67
79 78
27 26
78 77
67 66
26 25
77 76
76 75
39 38
57 51
75 74
38 37
51 50
74 73
50 49
66 65
25 24
49 48
57 56
25 19
24 23
48 47
56 55
85 83
12 10
57 43
37 33
37 36
73 72
65 64
19 18
23 22
47 46
55 54
83 82
10 9
43 42
73 69
65 61
33 32
36 35
72 71
18 17
46 45
54 53
82 81
9 8
42 41
5 4
28 15
66 59
8 7
53 52
64 63
64 62
22 21
22 20
69 68
61 60
32 31
35 34
71 70
17 16
45 44
81 80
59 58
41 40
13 11
15 14
4 3
